28 28
22
3 3 0 0
3 4 13 24
3 5 3 0
3 6 0 22
3 7 6 21
3 8 13 0
3 9 0 13
3 10 0 3
3 11 25 17
3 16 13 8
3 17 25 0
3 21 6 0
3 23 3 5
4 3 9 0
4 4 9 3
4 5 21 0
4 8 9 7
4 13 9 15
4 23 21 5
5 6 16 13
5 9 16 19
5 13 16 0
